data;

param pn := 4;
param ln := 6;
param hn := 3;

param e := 1 10, 2 8, 3 6, 4 6;
param v := 1 3, 2 4, 3 0, 4 0;
param c := 1 2, 2 2, 3 2, 4 2, 5 2, 6 2;
param t := 1 1.5, 2 1.5, 3 1.5, 4 1.5, 5 1.5, 6 1.5;
param d :   1   2   3   :=
    1       25  90  25
    2       90  70  90
    3       20  90  90
    4       90  25  90;
param DM := 100;

end;

/* 70, 75, 115, 120 */
/* 6, 5, 5, 4 */
